<instance format="XCSP3" type="CSP">
  <variables>
    <var id="x0"> 0 8 15 16 </var>
    <var id="x1"> 0 3 8 16 17 </var>
    <var id="x2"> 0 6 8 15 </var>
    <var id="x3"> 3 6 8 15 </var>
    <var id="x4"> 15 16 </var>
    <var id="x5"> 7 8 15 16 </var>
    <var id="x6"> 3 6 15..17 </var>
    <var id="x7"> 0 3 </var>
    <var id="x8"> 4 5 12 17 </var>
    <var id="x9"> 4 5 8 11 </var>
    <var id="x10"> 3 4 8 17 </var>
    <var id="x11"> 3..5 17 </var>
    <var id="x12"> 5 8 14 </var>
    <var id="x13"> 3 5 8 11 </var>
    <var id="x14"> 3 4 8 12 14 </var>
    <var id="x15"> 3..5 12 14 </var>
    <var id="x16"> 3 5 15 </var>
    <var id="x17"> 4 16 </var>
    <var id="x18"> 1..4 15 </var>
    <var id="x19"> 3..5 15 </var>
    <var id="x20"> 3 5 9 15 </var>
    <var id="x21"> 1 3 5 15 16 </var>
    <var id="x22"> 2 4 9 15 16 </var>
    <var id="x23"> 4 5 15 16 </var>
    <var id="x24"> 4 6 14 16 17 </var>
    <var id="x25"> 4 15 17 </var>
    <var id="x26"> 5 16 17 </var>
    <var id="x27"> 5 6 13..15 </var>
    <var id="x28"> 5 6 15 </var>
    <var id="x29"> 4 13 14 16 </var>
    <var id="x30"> 4 13 15 16 </var>
    <var id="x31"> 4 5 14 </var>
    <var id="x32"> 4 5 </var>
    <var id="x33"> 4 5 8 16 </var>
    <var id="x34"> 2 5 8 16 </var>
    <var id="x35"> 5 8 16 </var>
    <var id="x36"> 2 4 9 10 16 </var>
    <var id="x37"> 4 9 10 14 16 </var>
    <var id="x38"> 4 5 8 10 16 </var>
    <var id="x39"> 5 9 10 16 </var>
    <var id="x40"> 3 10 12 17 </var>
    <var id="x41"> 6 7 17 </var>
    <var id="x42"> 12 17 </var>
    <var id="x43"> 3 7 17 </var>
    <var id="x44"> 6 8 </var>
    <var id="x45"> 6 9 10 17 </var>
    <var id="x46"> 7 8 10 </var>
    <var id="x47"> 3 6 9 10 17 </var>
    <var id="x48"> 3 4 11 17 </var>
    <var id="x49"> 3 11 12 17 </var>
    <var id="x50"> 0 4 11 16 </var>
    <var id="x51"> 0 </var>
    <var id="x52"> 3 11 </var>
    <var id="x53"> 3 4 12 16 </var>
    <var id="x54"> 3 16 17 </var>
    <var id="x55"> 4..7 15 </var>
    <var id="x56"> 5 10 15 </var>
    <var id="x57"> 4 5 15 </var>
    <var id="x58"> 4 6 15 </var>
    <var id="x59"> 4 7 9 15 </var>
    <var id="x60"> 4 5 7 15 </var>
    <var id="x61"> 5 16 </var>
    <var id="x62"> 4 5 7 10 15 16 </var>
    <var id="x63"> 6 11 15 </var>
    <var id="x64"> 0 6 11 </var>
    <var id="x65"> 1 2 15 </var>
    <var id="x66"> 0 8 11 15 </var>
    <var id="x67"> 1 2 6 8 15 </var>
    <var id="x68"> 0 6 8 15 </var>
    <var id="x69"> 1 8 11 15 </var>
    <var id="x70"> 0 1 10 </var>
    <var id="x71"> 3..5 11 </var>
    <var id="x72"> 0 4 5 11 13 </var>
    <var id="x73"> 0 3..5 13 </var>
    <var id="x74"> 0 3 5 12 </var>
    <var id="x75"> 3 5 11 12 </var>
    <var id="x76"> 3 4 9 12 13 </var>
    <var id="x77"> 4 9 11 13 </var>
    <var id="x78"> 0 3..5 12 </var>
    <var id="x79"> 3..6 15 </var>
    <var id="x80"> 2 4 5 13 15 </var>
    <var id="x81"> 2..4 15 </var>
    <var id="x82"> 3 5 15 </var>
    <var id="x83"> 3 4 13 </var>
    <var id="x84"> 4 6 </var>
    <var id="x85"> 3 5 6 15 </var>
    <var id="x86"> 5 11 15 </var>
    <var id="x87"> 1 2 4 5 15 </var>
    <var id="x88"> 2 4 8 15 </var>
    <var id="x89"> 0 4 5 15 </var>
    <var id="x90"> 0 2 5 8 </var>
    <var id="x91"> 5 8 11 15 </var>
    <var id="x92"> 4 8 </var>
    <var id="x93"> 0 1 4 5 </var>
    <var id="x94"> 5 13 15 17 </var>
    <var id="x95"> 4 7 17 </var>
    <var id="x96"> 4 5 8 13 15 </var>
    <var id="x97"> 4 8 13 15 </var>
    <var id="x98"> 4 5 7 13 15 17 </var>
    <var id="x99"> 4 8 9 13 </var>
    <var id="x100"> 4 9 13 15 </var>
    <var id="x101"> 4 9 17 </var>
    <var id="x102"> 4 5 12 13 15 </var>
    <var id="x103"> 4 5 13 15 16 </var>
    <var id="x104"> 3 4 15 </var>
    <var id="x105"> 3..5 13 15 </var>
    <var id="x106"> 3 5 12 16 </var>
    <var id="x107"> 3 5 12 15 16 </var>
    <var id="x108"> 4 6 16 </var>
    <var id="x109"> 3 5 6 15 16 </var>
    <var id="x110"> 3 5 11 15 17 </var>
    <var id="x111"> 11 16 17 </var>
    <var id="x112"> 1 3 13 15 </var>
    <var id="x113"> 3 15 17 </var>
    <var id="x114"> 1 3 5 11 15 16 </var>
    <var id="x115"> 11 13 15 16 </var>
    <var id="x116"> 16 17 </var>
    <var id="x117"> 3 5 15..17 </var>
    <var id="x118"> 11 14 16 </var>
    <var id="x119"> 3 8 15 </var>
    <var id="x120"> 3 5 8 16 </var>
    <var id="x121"> 3 5 8 11 15 </var>
    <var id="x122"> 3 8 14 16 </var>
    <var id="x123"> 10 14 16 </var>
    <var id="x124"> 5 8 10 11 15 16 </var>
    <var id="x125"> 3 5 10 14 </var>
    <var id="x126"> 3 15 17 </var>
    <var id="x127"> 3 12 13 15 17 </var>
    <var id="x128"> 0 17 </var>
    <var id="x129"> 3 8 13 15 </var>
    <var id="x130"> 3 8 12 15 </var>
    <var id="x131"> 8 15 </var>
    <var id="x132"> 0 3 12 </var>
    <var id="x133"> 10 11 13 15 17 </var>
    <var id="x134"> 4 13 15 17 </var>
    <var id="x135"> 4 13 15 </var>
    <var id="x136"> 4 7 15 17 </var>
    <var id="x137"> 13..15 </var>
    <var id="x138"> 4 10 11 13 15 </var>
    <var id="x139"> 4 7 10 11 15 </var>
    <var id="x140"> 10 15 17 </var>
  </variables>
  <constraints>
    <group>
      <allDifferent> %... </allDifferent>
      <args> x0 x1 x2 x3 x4 x5 x6 x7 </args>
      <args> x8 x9 x10 x11 x12 x13 x14 x15 </args>
      <args> x16 x17 x18 x19 x20 x21 x22 x23 </args>
      <args> x24 x25 x26 x27 x28 x29 x30 x31 </args>
      <args> x32 x33 x34 x35 x36 x37 x38 x39 </args>
      <args> x40 x41 x42 x43 x44 x45 x46 x47 </args>
      <args> x48 x49 x50 x51 x52 x53 x54 </args>
      <args> x55 x56 x57 x58 x59 x60 x61 x62 </args>
      <args> x63 x64 x65 x66 x67 x68 x69 x70 </args>
      <args> x71 x72 x73 x74 x75 x76 x77 x78 </args>
      <args> x79 x80 x81 x82 x83 x84 x85 </args>
      <args> x86 x87 x88 x89 x90 x91 x92 x93 </args>
      <args> x94 x95 x96 x97 x98 x99 x100 x101 </args>
      <args> x102 x103 x104 x105 x106 x107 x108 x109 </args>
      <args> x110 x111 x112 x113 x114 x115 x116 x117 </args>
      <args> x118 x119 x120 x121 x122 x123 x124 x125 </args>
      <args> x126 x127 x128 x129 x130 x131 x132 </args>
      <args> x133 x134 x135 x136 x137 x138 x139 x140 </args>
      <args> x32 x48 x55 x63 x71 x79 x110 x126 </args>
      <args> x16 x40 x49 x56 x86 x94 x127 x133 </args>
      <args> x17 x24 x41 x64 x95 x111 x118 x128 </args>
      <args> x8 x42 x57 x65 x80 x87 x102 x134 </args>
      <args> x0 x9 x33 x50 x66 x72 x96 x103 </args>
      <args> x18 x58 x67 x97 x112 x119 x129 x135 </args>
      <args> x10 x25 x59 x81 x88 x104 x113 x136 </args>
      <args> x11 x19 x43 x60 x73 x89 x98 x105 </args>
      <args> x1 x26 x34 x61 x74 x90 x106 x120 </args>
      <args> x2 x12 x27 x44 x51 x68 x137 </args>
      <args> x3 x13 x20 x28 x52 x91 x121 </args>
      <args> x21 x35 x69 x75 x82 x107 x114 x130 </args>
      <args> x14 x29 x53 x76 x83 x92 x99 x122 </args>
      <args> x4 x22 x30 x36 x77 x100 x115 x138 </args>
      <args> x37 x45 x84 x101 x108 x116 x123 </args>
      <args> x5 x23 x38 x46 x62 x124 x131 x139 </args>
      <args> x6 x39 x47 x54 x85 x109 x117 x140 </args>
      <args> x7 x15 x31 x70 x78 x93 x125 x132 </args>
    </group>
  </constraints>
</instance>

